instances/knapsack/discrete/knapsack_90_4.lp
\ Model knapsack_90_4
\ LP format - for model browsing. Use MPS format to capture full model detail.
\ Signature: 0xc29ff4c0dcb79651
Minimize
  - 2 x[0] - 50 x[1] - 8 x[2] - 4 x[3] - 61 x[4] - 65 x[5] - 21 x[6]
   - 43 x[7] - 10 x[8] - 98 x[9] - 15 x[10] - 63 x[11] - 43 x[12]
   - 10 x[13] - 31 x[14] - 16 x[15] - 78 x[16] - 26 x[17] - 90 x[18]
   - 45 x[19] - 21 x[20] - 55 x[21] - 76 x[22] - 24 x[23] - 69 x[24]
   - 78 x[25] - 40 x[26] - 35 x[27] - 42 x[28] - 8 x[29] - x[30] - 36 x[31]
   - 80 x[32] - 43 x[33] - 95 x[34] - 49 x[35] - 65 x[36] - 75 x[37]
   - 42 x[38] - 79 x[39] - 92 x[40] - 85 x[41] - 41 x[42] - 23 x[43]
   - 78 x[44] - 51 x[45] - 48 x[46] - 64 x[47] - 52 x[48] - 85 x[49]
   - 31 x[50] - 18 x[51] - 3 x[52] - 61 x[53] - 88 x[54] - 58 x[55]
   - 2 x[56] - 92 x[57] - 72 x[58] - 79 x[59] - 88 x[60] - 10 x[61]
   - 81 x[62] - 25 x[63] - 22 x[64] - 41 x[65] - x[66] - 73 x[67]
   - 20 x[68] - 89 x[69] - 13 x[70] - 75 x[71] - 81 x[72] - 49 x[73]
   - 18 x[74] - 10 x[75] - 74 x[76] - 81 x[77] - 24 x[78] - 51 x[79]
   - 91 x[80] - 46 x[81] - 69 x[82] - 54 x[83] - 21 x[84] - 16 x[85]
   - 30 x[86] - 63 x[87] - 24 x[88] - 18 x[89]
Subject To
 primal_upper: 53 x[0] + 22 x[1] + 20 x[2] + 69 x[3] + 42 x[4] + 87 x[5]
   + 75 x[6] + 61 x[7] + 95 x[8] + 92 x[9] + 81 x[10] + 5 x[11] + 2 x[12]
   + 90 x[13] + 2 x[14] + 74 x[15] + 91 x[16] + 14 x[17] + 51 x[18]
   + 20 x[19] + 99 x[20] + 45 x[21] + 98 x[22] + 96 x[23] + 30 x[24]
   + 42 x[25] + 24 x[26] + 41 x[27] + 51 x[28] + 5 x[29] + 39 x[30]
   + 65 x[31] + 41 x[32] + 51 x[33] + 22 x[34] + 55 x[35] + 22 x[36]
   + 6 x[37] + 34 x[38] + 80 x[39] + 49 x[40] + 15 x[41] + 40 x[42]
   + 39 x[43] + 49 x[44] + 52 x[45] + 91 x[46] + 27 x[47] + 17 x[48]
   + 38 x[49] + 72 x[50] + 38 x[51] + 19 x[52] + 10 x[53] + 38 x[54]
   + 25 x[55] + 3 x[56] + 52 x[57] + 6 x[58] + 56 x[59] + 30 x[60]
   + 20 x[61] + 57 x[62] + 76 x[63] + 17 x[64] + 94 x[65] + 26 x[66]
   + 44 x[67] + 2 x[68] + 19 x[69] + 15 x[70] + 79 x[71] + 88 x[72]
   + 65 x[73] + 5 x[74] + 14 x[75] + 52 x[76] + 25 x[77] + 2 x[78]
   + 28 x[79] + 99 x[80] + 99 x[81] + 8 x[82] + 11 x[83] + 55 x[84]
   + 39 x[85] + 69 x[86] + 74 x[87] + 100 x[88] + 17 x[89] + 5.3 r[0]
   + 2.2 r[1] + 2 r[2] + 6.9 r[3] + 4.2 r[4] + 8.7 r[5] + 7.5 r[6]
   + 6.1 r[7] + 9.5 r[8] + 9.2 r[9] + 8.1 r[10] + 0.5 r[11] + 0.2 r[12]
   + 9 r[13] + 0.2 r[14] + 7.4 r[15] + 9.1 r[16] + 1.4 r[17] + 5.1 r[18]
   + 2 r[19] + 9.9 r[20] + 4.5 r[21] + 9.8 r[22] + 9.6 r[23] + 3 r[24]
   + 4.2 r[25] + 2.4 r[26] + 4.1 r[27] + 5.1 r[28] + 0.5 r[29] + 3.9 r[30]
   + 6.5 r[31] + 4.1 r[32] + 5.1 r[33] + 2.2 r[34] + 5.5 r[35] + 2.2 r[36]
   + 0.6 r[37] + 3.4 r[38] + 8 r[39] + 4.9 r[40] + 1.5 r[41] + 4 r[42]
   + 3.9 r[43] + 4.9 r[44] + 5.2 r[45] + 9.1 r[46] + 2.7 r[47] + 1.7 r[48]
   + 3.8 r[49] + 7.2 r[50] + 3.8 r[51] + 1.9 r[52] + r[53] + 3.8 r[54]
   + 2.5 r[55] + 0.3 r[56] + 5.2 r[57] + 0.6 r[58] + 5.6 r[59] + 3 r[60]
   + 2 r[61] + 5.7 r[62] + 7.6 r[63] + 1.7 r[64] + 9.4 r[65] + 2.6 r[66]
   + 4.4 r[67] + 0.2 r[68] + 1.9 r[69] + 1.5 r[70] + 7.9 r[71] + 8.8 r[72]
   + 6.5 r[73] + 0.5 r[74] + 1.4 r[75] + 5.2 r[76] + 2.5 r[77] + 0.2 r[78]
   + 2.8 r[79] + 9.9 r[80] + 9.9 r[81] + 0.8 r[82] + 1.1 r[83] + 5.5 r[84]
   + 3.9 r[85] + 6.9 r[86] + 7.4 r[87] + 10 r[88] + 1.7 r[89] <= 386
 primal_lower: 1.493933763683847 x[0] + 4.321071133202686 x[1]
   + 3.558173166374819 x[2] + 0.0282673492293532 x[3]
   + 4.665263204883493 x[4] + 1.524361653486203 x[5]
   + 3.519037033365512 x[6] + 2.395296674082267 x[7] + 2.4990558980273 x[8]
   + 2.405633046764114 x[9] + 3.092141497588904 x[10]
   + 2.259663014720158 x[11] + 3.745061364130363 x[12]
   + 4.580400723057447 x[13] + 4.276123200038483 x[14]
   + 3.552025675699327 x[15] + 3.341626816586484 x[16]
   + 2.645837089673812 x[17] + 3.152138702756609 x[18]
   + 0.4014608910904404 x[19] + 1.268668264146381 x[20]
   + 0.6732104273032247 x[21] + 4.073061011176776 x[22]
   + 3.809532679387624 x[23] + 3.711492234317189 x[24]
   + 3.887645447158878 x[25] + 0.3114488928580357 x[26]
   + 0.0608974091983575 x[27] + 3.135551925906397 x[28]
   + 2.533296709138134 x[29] + 0.2502196804855261 x[30]
   + 4.605464837907712 x[31] + 4.167583481000261 x[32]
   + 4.443550966224398 x[33] + 1.391781611579666 x[34]
   + 2.935876132951353 x[35] + 2.643020528626881 x[36]
   + 4.539075902123658 x[37] + 3.244055320151397 x[38]
   + 4.089371183823835 x[39] + 1.36338972459864 x[40]
   + 3.630931518631394 x[41] + 2.915215722807888 x[42]
   + 3.611020785151311 x[43] + 3.761938903086044 x[44]
   + 3.076640489648674 x[45] + 2.599940223131246 x[46]
   + 2.656228837841963 x[47] + 1.948162987211006 x[48]
   + 2.286266254828127 x[49] + 3.039404582212569 x[50]
   + 3.201628560714834 x[51] + 1.004750337013741 x[52]
   + 0.4964326005157995 x[53] + 2.467714442530045 x[54]
   + 4.098625305187437 x[55] + 2.227568385173008 x[56]
   + 0.5772632533037211 x[57] + 1.139342993613158 x[58]
   + 4.050345750562105 x[59] + 4.557645242971992 x[60]
   + 3.731667999877898 x[61] + 4.054166985627223 x[62]
   + 3.396906868674029 x[63] + 2.844798474753712 x[64]
   + 2.734509360994176 x[65] + 4.492917988829792 x[66]
   + 1.13959028943972 x[67] + 2.984270792331613 x[68]
   + 0.1108775442347665 x[69] + 2.463334399628854 x[70]
   + 0.3903501374115805 x[71] + 0.8614416722567222 x[72]
   + 4.128213902898608 x[73] + 2.339120829652459 x[74]
   + 0.854351630226548 x[75] + 3.795183282399576 x[76]
   + 1.972661550347594 x[77] + 0.3091503886762006 x[78]
   + 1.770763713367746 x[79] + 2.368252389826452 x[80]
   + 1.643839659471899 x[81] + 1.628673384767123 x[82]
   + 2.162062851086489 x[83] + 4.329560594250728 x[84]
   + 1.742958135717887 x[85] + 2.810624955315684 x[86]
   + 2.907270668178279 x[87] + 0.3720846974422978 x[88]
   + 4.034515884443351 x[89] + 12 u[0] + 28 u[1] + 90 u[2] + 63 u[3]
   + 96 u[4] + 14 u[5] + u[6] + 100 u[7] + 85 u[8] + 46 u[9] + 16 u[10]
   + 7 u[11] + 100 u[12] + 52 u[13] + 25 u[14] + 37 u[15] + 5 u[16]
   + 32 u[17] + 65 u[18] + 74 u[19] + 61 u[20] + 32 u[21] + 4 u[22]
   + 51 u[23] + 81 u[24] + 28 u[25] + 82 u[26] + 12 u[27] + 14 u[28]
   + 55 u[29] + 70 u[30] + 100 u[31] + 8 u[32] + 93 u[33] + 16 u[34]
   + 45 u[35] + 20 u[36] + 13 u[37] + 24 u[38] + 35 u[39] + 95 u[40]
   + 50 u[41] + 14 u[42] + 82 u[43] + 19 u[44] + 83 u[45] + 26 u[46]
   + 38 u[47] + 27 u[48] + 44 u[49] + 47 u[50] + 92 u[51] + 25 u[52]
   + 80 u[53] + 89 u[54] + 60 u[55] + 37 u[56] + 95 u[57] + 32 u[58]
   + 50 u[59] + 45 u[60] + 55 u[61] + 12 u[62] + 63 u[63] + 24 u[64]
   + 36 u[65] + 29 u[66] + 99 u[67] + 40 u[68] + 74 u[69] + 34 u[70]
   + 54 u[71] + 2 u[72] + 59 u[73] + 52 u[74] + 81 u[75] + 87 u[76]
   + 99 u[77] + 93 u[78] + 79 u[79] + 54 u[80] + 30 u[81] + 35 u[82]
   + 2 u[83] + 82 u[84] + 42 u[85] + 60 u[86] + 64 u[87] + 58 u[88]
   + 31 u[89] <= 94354
 mccormick1[0]: - u[0] + r[0] <= 0
 mccormick1[1]: - u[1] + r[1] <= 0
 mccormick1[2]: - u[2] + r[2] <= 0
 mccormick1[3]: - u[3] + r[3] <= 0
 mccormick1[4]: - u[4] + r[4] <= 0
 mccormick1[5]: - u[5] + r[5] <= 0
 mccormick1[6]: - u[6] + r[6] <= 0
 mccormick1[7]: - u[7] + r[7] <= 0
 mccormick1[8]: - u[8] + r[8] <= 0
 mccormick1[9]: - u[9] + r[9] <= 0
 mccormick1[10]: - u[10] + r[10] <= 0
 mccormick1[11]: - u[11] + r[11] <= 0
 mccormick1[12]: - u[12] + r[12] <= 0
 mccormick1[13]: - u[13] + r[13] <= 0
 mccormick1[14]: - u[14] + r[14] <= 0
 mccormick1[15]: - u[15] + r[15] <= 0
 mccormick1[16]: - u[16] + r[16] <= 0
 mccormick1[17]: - u[17] + r[17] <= 0
 mccormick1[18]: - u[18] + r[18] <= 0
 mccormick1[19]: - u[19] + r[19] <= 0
 mccormick1[20]: - u[20] + r[20] <= 0
 mccormick1[21]: - u[21] + r[21] <= 0
 mccormick1[22]: - u[22] + r[22] <= 0
 mccormick1[23]: - u[23] + r[23] <= 0
 mccormick1[24]: - u[24] + r[24] <= 0
 mccormick1[25]: - u[25] + r[25] <= 0
 mccormick1[26]: - u[26] + r[26] <= 0
 mccormick1[27]: - u[27] + r[27] <= 0
 mccormick1[28]: - u[28] + r[28] <= 0
 mccormick1[29]: - u[29] + r[29] <= 0
 mccormick1[30]: - u[30] + r[30] <= 0
 mccormick1[31]: - u[31] + r[31] <= 0
 mccormick1[32]: - u[32] + r[32] <= 0
 mccormick1[33]: - u[33] + r[33] <= 0
 mccormick1[34]: - u[34] + r[34] <= 0
 mccormick1[35]: - u[35] + r[35] <= 0
 mccormick1[36]: - u[36] + r[36] <= 0
 mccormick1[37]: - u[37] + r[37] <= 0
 mccormick1[38]: - u[38] + r[38] <= 0
 mccormick1[39]: - u[39] + r[39] <= 0
 mccormick1[40]: - u[40] + r[40] <= 0
 mccormick1[41]: - u[41] + r[41] <= 0
 mccormick1[42]: - u[42] + r[42] <= 0
 mccormick1[43]: - u[43] + r[43] <= 0
 mccormick1[44]: - u[44] + r[44] <= 0
 mccormick1[45]: - u[45] + r[45] <= 0
 mccormick1[46]: - u[46] + r[46] <= 0
 mccormick1[47]: - u[47] + r[47] <= 0
 mccormick1[48]: - u[48] + r[48] <= 0
 mccormick1[49]: - u[49] + r[49] <= 0
 mccormick1[50]: - u[50] + r[50] <= 0
 mccormick1[51]: - u[51] + r[51] <= 0
 mccormick1[52]: - u[52] + r[52] <= 0
 mccormick1[53]: - u[53] + r[53] <= 0
 mccormick1[54]: - u[54] + r[54] <= 0
 mccormick1[55]: - u[55] + r[55] <= 0
 mccormick1[56]: - u[56] + r[56] <= 0
 mccormick1[57]: - u[57] + r[57] <= 0
 mccormick1[58]: - u[58] + r[58] <= 0
 mccormick1[59]: - u[59] + r[59] <= 0
 mccormick1[60]: - u[60] + r[60] <= 0
 mccormick1[61]: - u[61] + r[61] <= 0
 mccormick1[62]: - u[62] + r[62] <= 0
 mccormick1[63]: - u[63] + r[63] <= 0
 mccormick1[64]: - u[64] + r[64] <= 0
 mccormick1[65]: - u[65] + r[65] <= 0
 mccormick1[66]: - u[66] + r[66] <= 0
 mccormick1[67]: - u[67] + r[67] <= 0
 mccormick1[68]: - u[68] + r[68] <= 0
 mccormick1[69]: - u[69] + r[69] <= 0
 mccormick1[70]: - u[70] + r[70] <= 0
 mccormick1[71]: - u[71] + r[71] <= 0
 mccormick1[72]: - u[72] + r[72] <= 0
 mccormick1[73]: - u[73] + r[73] <= 0
 mccormick1[74]: - u[74] + r[74] <= 0
 mccormick1[75]: - u[75] + r[75] <= 0
 mccormick1[76]: - u[76] + r[76] <= 0
 mccormick1[77]: - u[77] + r[77] <= 0
 mccormick1[78]: - u[78] + r[78] <= 0
 mccormick1[79]: - u[79] + r[79] <= 0
 mccormick1[80]: - u[80] + r[80] <= 0
 mccormick1[81]: - u[81] + r[81] <= 0
 mccormick1[82]: - u[82] + r[82] <= 0
 mccormick1[83]: - u[83] + r[83] <= 0
 mccormick1[84]: - u[84] + r[84] <= 0
 mccormick1[85]: - u[85] + r[85] <= 0
 mccormick1[86]: - u[86] + r[86] <= 0
 mccormick1[87]: - u[87] + r[87] <= 0
 mccormick1[88]: - u[88] + r[88] <= 0
 mccormick1[89]: - u[89] + r[89] <= 0
 mccormick2[0]: - x[0] + r[0] <= 0
 mccormick2[1]: - x[1] + r[1] <= 0
 mccormick2[2]: - x[2] + r[2] <= 0
 mccormick2[3]: - x[3] + r[3] <= 0
 mccormick2[4]: - x[4] + r[4] <= 0
 mccormick2[5]: - x[5] + r[5] <= 0
 mccormick2[6]: - x[6] + r[6] <= 0
 mccormick2[7]: - x[7] + r[7] <= 0
 mccormick2[8]: - x[8] + r[8] <= 0
 mccormick2[9]: - x[9] + r[9] <= 0
 mccormick2[10]: - x[10] + r[10] <= 0
 mccormick2[11]: - x[11] + r[11] <= 0
 mccormick2[12]: - x[12] + r[12] <= 0
 mccormick2[13]: - x[13] + r[13] <= 0
 mccormick2[14]: - x[14] + r[14] <= 0
 mccormick2[15]: - x[15] + r[15] <= 0
 mccormick2[16]: - x[16] + r[16] <= 0
 mccormick2[17]: - x[17] + r[17] <= 0
 mccormick2[18]: - x[18] + r[18] <= 0
 mccormick2[19]: - x[19] + r[19] <= 0
 mccormick2[20]: - x[20] + r[20] <= 0
 mccormick2[21]: - x[21] + r[21] <= 0
 mccormick2[22]: - x[22] + r[22] <= 0
 mccormick2[23]: - x[23] + r[23] <= 0
 mccormick2[24]: - x[24] + r[24] <= 0
 mccormick2[25]: - x[25] + r[25] <= 0
 mccormick2[26]: - x[26] + r[26] <= 0
 mccormick2[27]: - x[27] + r[27] <= 0
 mccormick2[28]: - x[28] + r[28] <= 0
 mccormick2[29]: - x[29] + r[29] <= 0
 mccormick2[30]: - x[30] + r[30] <= 0
 mccormick2[31]: - x[31] + r[31] <= 0
 mccormick2[32]: - x[32] + r[32] <= 0
 mccormick2[33]: - x[33] + r[33] <= 0
 mccormick2[34]: - x[34] + r[34] <= 0
 mccormick2[35]: - x[35] + r[35] <= 0
 mccormick2[36]: - x[36] + r[36] <= 0
 mccormick2[37]: - x[37] + r[37] <= 0
 mccormick2[38]: - x[38] + r[38] <= 0
 mccormick2[39]: - x[39] + r[39] <= 0
 mccormick2[40]: - x[40] + r[40] <= 0
 mccormick2[41]: - x[41] + r[41] <= 0
 mccormick2[42]: - x[42] + r[42] <= 0
 mccormick2[43]: - x[43] + r[43] <= 0
 mccormick2[44]: - x[44] + r[44] <= 0
 mccormick2[45]: - x[45] + r[45] <= 0
 mccormick2[46]: - x[46] + r[46] <= 0
 mccormick2[47]: - x[47] + r[47] <= 0
 mccormick2[48]: - x[48] + r[48] <= 0
 mccormick2[49]: - x[49] + r[49] <= 0
 mccormick2[50]: - x[50] + r[50] <= 0
 mccormick2[51]: - x[51] + r[51] <= 0
 mccormick2[52]: - x[52] + r[52] <= 0
 mccormick2[53]: - x[53] + r[53] <= 0
 mccormick2[54]: - x[54] + r[54] <= 0
 mccormick2[55]: - x[55] + r[55] <= 0
 mccormick2[56]: - x[56] + r[56] <= 0
 mccormick2[57]: - x[57] + r[57] <= 0
 mccormick2[58]: - x[58] + r[58] <= 0
 mccormick2[59]: - x[59] + r[59] <= 0
 mccormick2[60]: - x[60] + r[60] <= 0
 mccormick2[61]: - x[61] + r[61] <= 0
 mccormick2[62]: - x[62] + r[62] <= 0
 mccormick2[63]: - x[63] + r[63] <= 0
 mccormick2[64]: - x[64] + r[64] <= 0
 mccormick2[65]: - x[65] + r[65] <= 0
 mccormick2[66]: - x[66] + r[66] <= 0
 mccormick2[67]: - x[67] + r[67] <= 0
 mccormick2[68]: - x[68] + r[68] <= 0
 mccormick2[69]: - x[69] + r[69] <= 0
 mccormick2[70]: - x[70] + r[70] <= 0
 mccormick2[71]: - x[71] + r[71] <= 0
 mccormick2[72]: - x[72] + r[72] <= 0
 mccormick2[73]: - x[73] + r[73] <= 0
 mccormick2[74]: - x[74] + r[74] <= 0
 mccormick2[75]: - x[75] + r[75] <= 0
 mccormick2[76]: - x[76] + r[76] <= 0
 mccormick2[77]: - x[77] + r[77] <= 0
 mccormick2[78]: - x[78] + r[78] <= 0
 mccormick2[79]: - x[79] + r[79] <= 0
 mccormick2[80]: - x[80] + r[80] <= 0
 mccormick2[81]: - x[81] + r[81] <= 0
 mccormick2[82]: - x[82] + r[82] <= 0
 mccormick2[83]: - x[83] + r[83] <= 0
 mccormick2[84]: - x[84] + r[84] <= 0
 mccormick2[85]: - x[85] + r[85] <= 0
 mccormick2[86]: - x[86] + r[86] <= 0
 mccormick2[87]: - x[87] + r[87] <= 0
 mccormick2[88]: - x[88] + r[88] <= 0
 mccormick2[89]: - x[89] + r[89] <= 0
 mccormick3[0]: x[0] + u[0] - r[0] <= 1
 mccormick3[1]: x[1] + u[1] - r[1] <= 1
 mccormick3[2]: x[2] + u[2] - r[2] <= 1
 mccormick3[3]: x[3] + u[3] - r[3] <= 1
 mccormick3[4]: x[4] + u[4] - r[4] <= 1
 mccormick3[5]: x[5] + u[5] - r[5] <= 1
 mccormick3[6]: x[6] + u[6] - r[6] <= 1
 mccormick3[7]: x[7] + u[7] - r[7] <= 1
 mccormick3[8]: x[8] + u[8] - r[8] <= 1
 mccormick3[9]: x[9] + u[9] - r[9] <= 1
 mccormick3[10]: x[10] + u[10] - r[10] <= 1
 mccormick3[11]: x[11] + u[11] - r[11] <= 1
 mccormick3[12]: x[12] + u[12] - r[12] <= 1
 mccormick3[13]: x[13] + u[13] - r[13] <= 1
 mccormick3[14]: x[14] + u[14] - r[14] <= 1
 mccormick3[15]: x[15] + u[15] - r[15] <= 1
 mccormick3[16]: x[16] + u[16] - r[16] <= 1
 mccormick3[17]: x[17] + u[17] - r[17] <= 1
 mccormick3[18]: x[18] + u[18] - r[18] <= 1
 mccormick3[19]: x[19] + u[19] - r[19] <= 1
 mccormick3[20]: x[20] + u[20] - r[20] <= 1
 mccormick3[21]: x[21] + u[21] - r[21] <= 1
 mccormick3[22]: x[22] + u[22] - r[22] <= 1
 mccormick3[23]: x[23] + u[23] - r[23] <= 1
 mccormick3[24]: x[24] + u[24] - r[24] <= 1
 mccormick3[25]: x[25] + u[25] - r[25] <= 1
 mccormick3[26]: x[26] + u[26] - r[26] <= 1
 mccormick3[27]: x[27] + u[27] - r[27] <= 1
 mccormick3[28]: x[28] + u[28] - r[28] <= 1
 mccormick3[29]: x[29] + u[29] - r[29] <= 1
 mccormick3[30]: x[30] + u[30] - r[30] <= 1
 mccormick3[31]: x[31] + u[31] - r[31] <= 1
 mccormick3[32]: x[32] + u[32] - r[32] <= 1
 mccormick3[33]: x[33] + u[33] - r[33] <= 1
 mccormick3[34]: x[34] + u[34] - r[34] <= 1
 mccormick3[35]: x[35] + u[35] - r[35] <= 1
 mccormick3[36]: x[36] + u[36] - r[36] <= 1
 mccormick3[37]: x[37] + u[37] - r[37] <= 1
 mccormick3[38]: x[38] + u[38] - r[38] <= 1
 mccormick3[39]: x[39] + u[39] - r[39] <= 1
 mccormick3[40]: x[40] + u[40] - r[40] <= 1
 mccormick3[41]: x[41] + u[41] - r[41] <= 1
 mccormick3[42]: x[42] + u[42] - r[42] <= 1
 mccormick3[43]: x[43] + u[43] - r[43] <= 1
 mccormick3[44]: x[44] + u[44] - r[44] <= 1
 mccormick3[45]: x[45] + u[45] - r[45] <= 1
 mccormick3[46]: x[46] + u[46] - r[46] <= 1
 mccormick3[47]: x[47] + u[47] - r[47] <= 1
 mccormick3[48]: x[48] + u[48] - r[48] <= 1
 mccormick3[49]: x[49] + u[49] - r[49] <= 1
 mccormick3[50]: x[50] + u[50] - r[50] <= 1
 mccormick3[51]: x[51] + u[51] - r[51] <= 1
 mccormick3[52]: x[52] + u[52] - r[52] <= 1
 mccormick3[53]: x[53] + u[53] - r[53] <= 1
 mccormick3[54]: x[54] + u[54] - r[54] <= 1
 mccormick3[55]: x[55] + u[55] - r[55] <= 1
 mccormick3[56]: x[56] + u[56] - r[56] <= 1
 mccormick3[57]: x[57] + u[57] - r[57] <= 1
 mccormick3[58]: x[58] + u[58] - r[58] <= 1
 mccormick3[59]: x[59] + u[59] - r[59] <= 1
 mccormick3[60]: x[60] + u[60] - r[60] <= 1
 mccormick3[61]: x[61] + u[61] - r[61] <= 1
 mccormick3[62]: x[62] + u[62] - r[62] <= 1
 mccormick3[63]: x[63] + u[63] - r[63] <= 1
 mccormick3[64]: x[64] + u[64] - r[64] <= 1
 mccormick3[65]: x[65] + u[65] - r[65] <= 1
 mccormick3[66]: x[66] + u[66] - r[66] <= 1
 mccormick3[67]: x[67] + u[67] - r[67] <= 1
 mccormick3[68]: x[68] + u[68] - r[68] <= 1
 mccormick3[69]: x[69] + u[69] - r[69] <= 1
 mccormick3[70]: x[70] + u[70] - r[70] <= 1
 mccormick3[71]: x[71] + u[71] - r[71] <= 1
 mccormick3[72]: x[72] + u[72] - r[72] <= 1
 mccormick3[73]: x[73] + u[73] - r[73] <= 1
 mccormick3[74]: x[74] + u[74] - r[74] <= 1
 mccormick3[75]: x[75] + u[75] - r[75] <= 1
 mccormick3[76]: x[76] + u[76] - r[76] <= 1
 mccormick3[77]: x[77] + u[77] - r[77] <= 1
 mccormick3[78]: x[78] + u[78] - r[78] <= 1
 mccormick3[79]: x[79] + u[79] - r[79] <= 1
 mccormick3[80]: x[80] + u[80] - r[80] <= 1
 mccormick3[81]: x[81] + u[81] - r[81] <= 1
 mccormick3[82]: x[82] + u[82] - r[82] <= 1
 mccormick3[83]: x[83] + u[83] - r[83] <= 1
 mccormick3[84]: x[84] + u[84] - r[84] <= 1
 mccormick3[85]: x[85] + u[85] - r[85] <= 1
 mccormick3[86]: x[86] + u[86] - r[86] <= 1
 mccormick3[87]: x[87] + u[87] - r[87] <= 1
 mccormick3[88]: x[88] + u[88] - r[88] <= 1
 mccormick3[89]: x[89] + u[89] - r[89] <= 1
Bounds
Binaries
 x[0] x[1] x[2] x[3] x[4] x[5] x[6] x[7] x[8] x[9] x[10] x[11] x[12] x[13]
 x[14] x[15] x[16] x[17] x[18] x[19] x[20] x[21] x[22] x[23] x[24] x[25]
 x[26] x[27] x[28] x[29] x[30] x[31] x[32] x[33] x[34] x[35] x[36] x[37]
 x[38] x[39] x[40] x[41] x[42] x[43] x[44] x[45] x[46] x[47] x[48] x[49]
 x[50] x[51] x[52] x[53] x[54] x[55] x[56] x[57] x[58] x[59] x[60] x[61]
 x[62] x[63] x[64] x[65] x[66] x[67] x[68] x[69] x[70] x[71] x[72] x[73]
 x[74] x[75] x[76] x[77] x[78] x[79] x[80] x[81] x[82] x[83] x[84] x[85]
 x[86] x[87] x[88] x[89] u[0] u[1] u[2] u[3] u[4] u[5] u[6] u[7] u[8] u[9]
 u[10] u[11] u[12] u[13] u[14] u[15] u[16] u[17] u[18] u[19] u[20] u[21]
 u[22] u[23] u[24] u[25] u[26] u[27] u[28] u[29] u[30] u[31] u[32] u[33]
 u[34] u[35] u[36] u[37] u[38] u[39] u[40] u[41] u[42] u[43] u[44] u[45]
 u[46] u[47] u[48] u[49] u[50] u[51] u[52] u[53] u[54] u[55] u[56] u[57]
 u[58] u[59] u[60] u[61] u[62] u[63] u[64] u[65] u[66] u[67] u[68] u[69]
 u[70] u[71] u[72] u[73] u[74] u[75] u[76] u[77] u[78] u[79] u[80] u[81]
 u[82] u[83] u[84] u[85] u[86] u[87] u[88] u[89] r[0] r[1] r[2] r[3] r[4]
 r[5] r[6] r[7] r[8] r[9] r[10] r[11] r[12] r[13] r[14] r[15] r[16] r[17]
 r[18] r[19] r[20] r[21] r[22] r[23] r[24] r[25] r[26] r[27] r[28] r[29]
 r[30] r[31] r[32] r[33] r[34] r[35] r[36] r[37] r[38] r[39] r[40] r[41]
 r[42] r[43] r[44] r[45] r[46] r[47] r[48] r[49] r[50] r[51] r[52] r[53]
 r[54] r[55] r[56] r[57] r[58] r[59] r[60] r[61] r[62] r[63] r[64] r[65]
 r[66] r[67] r[68] r[69] r[70] r[71] r[72] r[73] r[74] r[75] r[76] r[77]
 r[78] r[79] r[80] r[81] r[82] r[83] r[84] r[85] r[86] r[87] r[88] r[89]
End
