instances/knapsack/discrete/knapsack_90_4.kp
99913
90
386

53 5.3 2
22 2.2 50
20 2.0 8
69 6.9 4
42 4.2 61
87 8.7 65
75 7.5 21
61 6.1 43
95 9.5 10
92 9.2 98
81 8.1 15
5 0.5 63
2 0.2 43
90 9.0 10
2 0.2 31
74 7.4 16
91 9.1 78
14 1.4 26
51 5.1 90
20 2.0 45
99 9.9 21
45 4.5 55
98 9.8 76
96 9.6 24
30 3.0 69
42 4.2 78
24 2.4 40
41 4.1 35
51 5.1 42
5 0.5 8
39 3.9 1
65 6.5 36
41 4.1 80
51 5.1 43
22 2.2 95
55 5.5 49
22 2.2 65
6 0.6 75
34 3.4 42
80 8.0 79
49 4.9 92
15 1.5 85
40 4.0 41
39 3.9 23
49 4.9 78
52 5.2 51
91 9.1 48
27 2.7 64
17 1.7 52
38 3.8 85
72 7.2 31
38 3.8 18
19 1.9 3
10 1.0 61
38 3.8 88
25 2.5 58
3 0.3 2
52 5.2 92
6 0.6 72
56 5.6 79
30 3.0 88
20 2.0 10
57 5.7 81
76 7.6 25
17 1.7 22
94 9.4 41
26 2.6 1
44 4.4 73
2 0.2 20
19 1.9 89
15 1.5 13
79 7.9 75
88 8.8 81
65 6.5 49
5 0.5 18
14 1.4 10
52 5.2 74
25 2.5 81
2 0.2 24
28 2.8 51
99 9.9 91
99 9.9 46
8 0.8 69
11 1.1 54
55 5.5 21
39 3.9 16
69 6.9 30
74 7.4 63
100 10.0 24
17 1.7 18

94354
424

[1.4939337636838466 4.321071133202686 3.558173166374819 0.028267349229353242 4.665263204883493 1.5243616534862034 3.5190370333655117 2.3952966740822674 2.4990558980273003 2.4056330467641143 3.0921414975889037 2.2596630147201577 3.7450613641303634 4.580400723057447 4.276123200038483 3.552025675699327 3.3416268165864844 2.6458370896738117 3.152138702756609 0.40146089109044036 1.2686682641463811 0.6732104273032247 4.073061011176776 3.8095326793876243 3.711492234317189 3.8876454471588784 0.3114488928580357 0.06089740919835753 3.135551925906397 2.5332967091381335 0.25021968048552606 4.605464837907712 4.1675834810002605 4.443550966224398 1.3917816115796664 2.9358761329513534 2.6430205286268813 4.539075902123658 3.2440553201513973 4.089371183823835 1.3633897245986404 3.630931518631394 2.915215722807888 3.6110207851513105 3.7619389030860444 3.076640489648674 2.599940223131246 2.656228837841963 1.9481629872110062 2.286266254828127 3.0394045822125686 3.2016285607148336 1.004750337013741 0.4964326005157995 2.4677144425300455 4.098625305187437 2.2275683851730084 0.5772632533037211 1.1393429936131576 4.050345750562105 4.557645242971992 3.731667999877898 4.054166985627223 3.3969068686740287 2.844798474753712 2.7345093609941755 4.492917988829792 1.1395902894397203 2.984270792331613 0.1108775442347665 2.4633343996288537 0.3903501374115805 0.8614416722567222 4.128213902898608 2.339120829652459 0.854351630226548 3.7951832823995764 1.972661550347594 0.3091503886762006 1.7707637133677456 2.3682523898264525 1.6438396594718991 1.6286733847671226 2.1620628510864885 4.329560594250728 1.7429581357178872 2.8106249553156837 2.907270668178279 0.37208469744229783 4.034515884443351]

[12 28 90 63 96 14 1 100 85 46 16 7 100 52 25 37 5 32 65 74 61 32 4 51 81 28 82 12 14 55 70 100 8 93 16 45 20 13 24 35 95 50 14 82 19 83 26 38 27 44 47 92 25 80 89 60 37 95 32 50 45 55 12 63 24 36 29 99 40 74 34 54 2 59 52 81 87 99 93 79 54 30 35 2 82 42 60 64 58 31]
